<number of tasks>
20

<cycle time>
1000

<order strength>
0,5


<task times>
1 210
2 169
3 191
4 141
5 66
6 117
7 232
8 39
9 164
10 167
11 120
12 33
13 35
14 255
15 134
16 275
17 22
18 110
19 218
20 94

<precedence relations>
1,9
2,3
2,4
2,5
3,9
4,7
4,8
5,6
6,9
7,9
8,10
8,11
8,12
9,13
9,14
9,15
9,16
9,17
13,20
14,18
15,19
16,18
16,19
17,19

<end>
